param n := 120;
param c := 3000
param : V : p w :=
   0	 387	 377
   1	 294	 284
   2	 349	 339
   3	 376	 366
   4	 270	 260
   5	 384	 374
   6	 479	 469
   7	 263	 253
   8	 288	 278
   9	 407	 397
  10	 302	 292
  11	 321	 311
  12	 439	 429
  13	 270	 260
  14	 321	 311
  15	 458	 448
  16	 263	 253
  17	 309	 299
  18	 438	 428
  19	 279	 269
  20	 313	 303
  21	 501	 491
  22	 261	 251
  23	 268	 258
  24	 367	 357
  25	 275	 265
  26	 388	 378
  27	 360	 350
  28	 330	 320
  29	 340	 330
  30	 463	 453
  31	 260	 250
  32	 307	 297
  33	 390	 380
  34	 270	 260
  35	 370	 360
  36	 481	 471
  37	 268	 258
  38	 281	 271
  39	 401	 391
  40	 300	 290
  41	 329	 319
  42	 475	 465
  43	 264	 254
  44	 291	 281
  45	 430	 420
  46	 264	 254
  47	 336	 326
  48	 414	 404
  49	 307	 297
  50	 309	 299
  51	 374	 364
  52	 310	 300
  53	 346	 336
  54	 380	 370
  55	 313	 303
  56	 337	 327
  57	 368	 358
  58	 279	 269
  59	 383	 373
  60	 381	 371
  61	 264	 254
  62	 385	 375
  63	 461	 451
  64	 267	 257
  65	 302	 292
  66	 390	 380
  67	 305	 295
  68	 335	 325
  69	 367	 357
  70	 283	 273
  71	 380	 370
  72	 369	 359
  73	 328	 318
  74	 333	 323
  75	 467	 457
  76	 272	 262
  77	 291	 281
  78	 451	 441
  79	 265	 255
  80	 314	 304
  81	 478	 468
  82	 267	 257
  83	 285	 275
  84	 501	 491
  85	 262	 252
  86	 267	 257
  87	 369	 359
  88	 276	 266
  89	 385	 375
  90	 469	 459
  91	 262	 252
  92	 299	 289
  93	 437	 427
  94	 262	 252
  95	 331	 321
  96	 471	 461
  97	 273	 263
  98	 286	 276
  99	 435	 425
 100	 296	 286
 101	 299	 289
 102	 370	 360
 103	 287	 277
 104	 373	 363
 105	 412	 402
 106	 307	 297
 107	 311	 301
 108	 465	 455
 109	 270	 260
 110	 295	 285
 111	 503	 493
 112	 260	 250
 113	 267	 257
 114	 388	 378
 115	 309	 299
 116	 333	 323
 117	 400	 390
 118	 295	 285
 119	 335	 325
;

set E :=
   0	   2
   0	   5
   0	   7
   0	   8
   0	  10
   0	  11
   0	  12
   0	  19
   0	  26
   0	  35
   0	  36
   0	  37
   0	  38
   0	  40
   0	  45
   0	  48
   0	  50
   0	  55
   0	  60
   0	  61
   0	  62
   0	  64
   0	  66
   0	  67
   0	  68
   0	  70
   0	  77
   0	  82
   0	  85
   0	  88
   0	  95
   0	  96
   0	 101
   0	 102
   0	 103
   0	 104
   0	 109
   0	 111
   0	 113
   0	 114
   0	 115
   0	 117
   1	   2
   1	   3
   1	   4
   1	   6
   1	   8
   1	  11
   1	  12
   1	  14
   1	  15
   1	  16
   1	  17
   1	  19
   1	  21
   1	  23
   1	  25
   1	  26
   1	  28
   1	  29
   1	  30
   1	  31
   1	  37
   1	  38
   1	  41
   1	  43
   1	  44
   1	  45
   1	  46
   1	  56
   1	  57
   1	  58
   1	  59
   1	  60
   1	  61
   1	  63
   1	  68
   1	  70
   1	  73
   1	  74
   1	  78
   1	  80
   1	  81
   1	  84
   1	  89
   1	  90
   1	  98
   1	 101
   1	 103
   1	 104
   1	 105
   1	 106
   1	 116
   1	 117
   1	 119
   2	   3
   2	   5
   2	   7
   2	  12
   2	  18
   2	  19
   2	  20
   2	  23
   2	  25
   2	  27
   2	  29
   2	  32
   2	  35
   2	  37
   2	  38
   2	  40
   2	  41
   2	  43
   2	  45
   2	  47
   2	  48
   2	  53
   2	  55
   2	  56
   2	  66
   2	  67
   2	  68
   2	  72
   2	  73
   2	  74
   2	  75
   2	  80
   2	  85
   2	  87
   2	  95
   2	  97
   2	 104
   2	 106
   2	 107
   2	 109
   2	 111
   2	 113
   2	 117
   3	   6
   3	   7
   3	   8
   3	  11
   3	  14
   3	  15
   3	  20
   3	  22
   3	  23
   3	  26
   3	  27
   3	  28
   3	  33
   3	  35
   3	  39
   3	  43
   3	  46
   3	  49
   3	  50
   3	  53
   3	  54
   3	  55
   3	  56
   3	  58
   3	  60
   3	  66
   3	  68
   3	  69
   3	  71
   3	  72
   3	  73
   3	  74
   3	  81
   3	  84
   3	  86
   3	  94
   3	  97
   3	 100
   3	 101
   3	 106
   3	 107
   3	 108
   3	 112
   3	 114
   3	 115
   3	 116
   3	 117
   3	 119
   4	   5
   4	   6
   4	   7
   4	   8
   4	  11
   4	  14
   4	  16
   4	  21
   4	  24
   4	  25
   4	  26
   4	  27
   4	  34
   4	  36
   4	  38
   4	  39
   4	  46
   4	  47
   4	  50
   4	  56
   4	  61
   4	  70
   4	  74
   4	  75
   4	  77
   4	  91
   4	  93
   4	  94
   4	  96
   4	 103
   4	 112
   4	 114
   4	 116
   4	 118
   5	   7
   5	   9
   5	  11
   5	  12
   5	  18
   5	  20
   5	  22
   5	  26
   5	  27
   5	  28
   5	  35
   5	  36
   5	  39
   5	  40
   5	  41
   5	  42
   5	  43
   5	  44
   5	  45
   5	  46
   5	  47
   5	  48
   5	  53
   5	  54
   5	  56
   5	  59
   5	  60
   5	  61
   5	  62
   5	  65
   5	  66
   5	  71
   5	  72
   5	  81
   5	  84
   5	  86
   5	  88
   5	  89
   5	  95
   5	  96
   5	  97
   5	  99
   5	 103
   5	 107
   5	 108
   5	 111
   5	 112
   5	 117
   5	 118
   5	 119
   6	   9
   6	  14
   6	  20
   6	  22
   6	  24
   6	  25
   6	  27
   6	  29
   6	  30
   6	  35
   6	  40
   6	  42
   6	  44
   6	  47
   6	  50
   6	  54
   6	  56
   6	  57
   6	  59
   6	  61
   6	  62
   6	  63
   6	  65
   6	  68
   6	  71
   6	  72
   6	  74
   6	  76
   6	  78
   6	  80
   6	  82
   6	  84
   6	  86
   6	  91
   6	  93
   6	  98
   6	 100
   6	 101
   6	 103
   6	 108
   6	 109
   6	 110
   6	 111
   6	 112
   6	 114
   6	 116
   6	 118
   7	   8
   7	  11
   7	  13
   7	  15
   7	  18
   7	  19
   7	  25
   7	  26
   7	  31
   7	  37
   7	  40
   7	  41
   7	  47
   7	  49
   7	  50
   7	  52
   7	  55
   7	  60
   7	  61
   7	  71
   7	  73
   7	  75
   7	  76
   7	  77
   7	  81
   7	  82
   7	  83
   7	  84
   7	  85
   7	  86
   7	  90
   7	  92
   7	  94
   7	  97
   7	  99
   7	 100
   7	 103
   7	 106
   7	 109
   7	 112
   7	 115
   7	 117
   8	  10
   8	  11
   8	  12
   8	  13
   8	  15
   8	  16
   8	  17
   8	  18
   8	  21
   8	  23
   8	  26
   8	  27
   8	  30
   8	  32
   8	  40
   8	  42
   8	  45
   8	  46
   8	  47
   8	  48
   8	  49
   8	  50
   8	  51
   8	  54
   8	  58
   8	  62
   8	  63
   8	  64
   8	  66
   8	  69
   8	  70
   8	  71
   8	  72
   8	  73
   8	  74
   8	  77
   8	  78
   8	  79
   8	  81
   8	  83
   8	  85
   8	  88
   8	  90
   8	  91
   8	  92
   8	  93
   8	  94
   8	 101
   8	 105
   8	 109
   8	 112
   8	 113
   8	 114
   8	 116
   8	 117
   9	  11
   9	  12
   9	  13
   9	  14
   9	  15
   9	  16
   9	  17
   9	  18
   9	  21
   9	  24
   9	  26
   9	  30
   9	  34
   9	  35
   9	  39
   9	  42
   9	  43
   9	  45
   9	  47
   9	  48
   9	  51
   9	  58
   9	  60
   9	  61
   9	  66
   9	  70
   9	  73
   9	  76
   9	  78
   9	  79
   9	  80
   9	  84
   9	  89
   9	  91
   9	  93
   9	  95
   9	  98
   9	  99
   9	 103
   9	 107
   9	 108
   9	 109
   9	 112
   9	 113
   9	 116
  10	  11
  10	  15
  10	  16
  10	  17
  10	  18
  10	  27
  10	  30
  10	  31
  10	  44
  10	  49
  10	  50
  10	  51
  10	  52
  10	  53
  10	  55
  10	  56
  10	  59
  10	  61
  10	  63
  10	  64
  10	  65
  10	  68
  10	  69
  10	  72
  10	  75
  10	  78
  10	  79
  10	  84
  10	  91
  10	  92
  10	  93
  10	  96
  10	  99
  10	 101
  10	 103
  10	 104
  10	 105
  10	 109
  10	 111
  10	 114
  10	 115
  10	 116
  10	 117
  10	 118
  11	  13
  11	  14
  11	  27
  11	  32
  11	  37
  11	  38
  11	  39
  11	  40
  11	  43
  11	  46
  11	  48
  11	  49
  11	  54
  11	  59
  11	  60
  11	  62
  11	  63
  11	  65
  11	  66
  11	  68
  11	  72
  11	  75
  11	  82
  11	  84
  11	  88
  11	  90
  11	  94
  11	  98
  11	 101
  11	 102
  11	 106
  11	 110
  11	 111
  11	 117
  11	 118
  12	  13
  12	  14
  12	  16
  12	  18
  12	  20
  12	  22
  12	  23
  12	  24
  12	  27
  12	  28
  12	  31
  12	  32
  12	  33
  12	  34
  12	  40
  12	  41
  12	  42
  12	  43
  12	  44
  12	  48
  12	  49
  12	  50
  12	  51
  12	  54
  12	  55
  12	  58
  12	  60
  12	  61
  12	  63
  12	  64
  12	  70
  12	  72
  12	  73
  12	  79
  12	  82
  12	  85
  12	  87
  12	  89
  12	  90
  12	  92
  12	 100
  12	 101
  12	 102
  12	 105
  12	 106
  12	 110
  12	 112
  12	 114
  12	 117
  13	  16
  13	  17
  13	  18
  13	  21
  13	  25
  13	  27
  13	  28
  13	  30
  13	  34
  13	  36
  13	  38
  13	  39
  13	  45
  13	  46
  13	  47
  13	  49
  13	  53
  13	  54
  13	  56
  13	  57
  13	  58
  13	  60
  13	  62
  13	  63
  13	  64
  13	  67
  13	  70
  13	  73
  13	  75
  13	  77
  13	  79
  13	  87
  13	  91
  13	  93
  13	  95
  13	  96
  13	  98
  13	  99
  13	 103
  13	 104
  13	 105
  13	 106
  13	 113
  13	 114
  13	 115
  13	 118
  13	 119
  14	  22
  14	  24
  14	  26
  14	  33
  14	  34
  14	  37
  14	  42
  14	  44
  14	  48
  14	  50
  14	  52
  14	  54
  14	  55
  14	  57
  14	  60
  14	  61
  14	  63
  14	  64
  14	  66
  14	  68
  14	  69
  14	  70
  14	  73
  14	  75
  14	  76
  14	  78
  14	  79
  14	  82
  14	  83
  14	  95
  14	  96
  14	  97
  14	 102
  14	 103
  14	 107
  14	 109
  14	 113
  14	 115
  14	 116
  14	 119
  15	  16
  15	  17
  15	  18
  15	  19
  15	  22
  15	  24
  15	  27
  15	  31
  15	  32
  15	  37
  15	  41
  15	  43
  15	  46
  15	  50
  15	  51
  15	  55
  15	  56
  15	  59
  15	  60
  15	  62
  15	  64
  15	  71
  15	  75
  15	  78
  15	  79
  15	  80
  15	  83
  15	  84
  15	  87
  15	  89
  15	  90
  15	  91
  15	  94
  15	  97
  15	  98
  15	  99
  15	 101
  15	 102
  15	 107
  15	 109
  15	 110
  15	 111
  15	 117
  16	  19
  16	  21
  16	  22
  16	  23
  16	  24
  16	  26
  16	  27
  16	  28
  16	  30
  16	  31
  16	  32
  16	  38
  16	  39
  16	  43
  16	  52
  16	  53
  16	  54
  16	  61
  16	  62
  16	  67
  16	  72
  16	  73
  16	  79
  16	  85
  16	  86
  16	  87
  16	  90
  16	  92
  16	  94
  16	  96
  16	 102
  16	 103
  16	 107
  16	 109
  16	 110
  16	 111
  16	 113
  16	 114
  16	 116
  16	 117
  17	  18
  17	  20
  17	  30
  17	  34
  17	  35
  17	  37
  17	  40
  17	  41
  17	  42
  17	  45
  17	  60
  17	  62
  17	  63
  17	  64
  17	  66
  17	  73
  17	  75
  17	  76
  17	  79
  17	  80
  17	  83
  17	  87
  17	  90
  17	  92
  17	  95
  17	 104
  17	 110
  17	 111
  17	 112
  17	 115
  17	 118
  17	 119
  18	  19
  18	  21
  18	  24
  18	  25
  18	  26
  18	  30
  18	  31
  18	  37
  18	  41
  18	  42
  18	  43
  18	  44
  18	  46
  18	  47
  18	  48
  18	  50
  18	  51
  18	  54
  18	  56
  18	  57
  18	  59
  18	  60
  18	  61
  18	  62
  18	  63
  18	  68
  18	  69
  18	  72
  18	  77
  18	  79
  18	  81
  18	  82
  18	  83
  18	  84
  18	  86
  18	  87
  18	  88
  18	  91
  18	  94
  18	  95
  18	  98
  18	  99
  18	 100
  18	 103
  18	 106
  18	 108
  18	 114
  18	 115
  18	 116
  18	 119
  19	  20
  19	  26
  19	  31
  19	  32
  19	  34
  19	  35
  19	  37
  19	  41
  19	  42
  19	  43
  19	  44
  19	  45
  19	  54
  19	  57
  19	  61
  19	  63
  19	  65
  19	  66
  19	  70
  19	  72
  19	  73
  19	  76
  19	  77
  19	  80
  19	  81
  19	  83
  19	  86
  19	  87
  19	  95
  19	  96
  19	 103
  19	 104
  19	 108
  19	 109
  19	 115
  19	 117
  20	  21
  20	  23
  20	  30
  20	  32
  20	  34
  20	  35
  20	  37
  20	  39
  20	  43
  20	  50
  20	  51
  20	  52
  20	  53
  20	  54
  20	  55
  20	  59
  20	  61
  20	  68
  20	  69
  20	  76
  20	  80
  20	  81
  20	  82
  20	  84
  20	  85
  20	  88
  20	  91
  20	  92
  20	  93
  20	  97
  20	 101
  20	 102
  20	 103
  20	 107
  20	 108
  20	 110
  20	 111
  20	 112
  20	 116
  20	 119
  21	  24
  21	  28
  21	  30
  21	  33
  21	  35
  21	  41
  21	  45
  21	  50
  21	  51
  21	  53
  21	  54
  21	  60
  21	  62
  21	  63
  21	  66
  21	  67
  21	  68
  21	  70
  21	  74
  21	  79
  21	  80
  21	  81
  21	  82
  21	  90
  21	  91
  21	  94
  21	  96
  21	  98
  21	  99
  21	 101
  21	 105
  21	 106
  21	 109
  21	 111
  21	 116
  21	 118
  22	  23
  22	  25
  22	  30
  22	  33
  22	  35
  22	  36
  22	  37
  22	  39
  22	  40
  22	  42
  22	  44
  22	  49
  22	  52
  22	  53
  22	  54
  22	  55
  22	  59
  22	  60
  22	  77
  22	  78
  22	  84
  22	  88
  22	  95
  22	  98
  22	 100
  22	 101
  22	 103
  22	 104
  22	 105
  22	 106
  22	 107
  22	 112
  22	 114
  22	 115
  22	 118
  23	  24
  23	  28
  23	  29
  23	  31
  23	  32
  23	  39
  23	  41
  23	  49
  23	  50
  23	  51
  23	  53
  23	  56
  23	  57
  23	  63
  23	  66
  23	  68
  23	  70
  23	  72
  23	  73
  23	  75
  23	  78
  23	  79
  23	  81
  23	  82
  23	  86
  23	  87
  23	  88
  23	  91
  23	  92
  23	  93
  23	  94
  23	  95
  23	  96
  23	  98
  23	 100
  23	 102
  23	 111
  23	 113
  24	  26
  24	  27
  24	  31
  24	  33
  24	  38
  24	  41
  24	  43
  24	  44
  24	  45
  24	  48
  24	  50
  24	  56
  24	  57
  24	  58
  24	  60
  24	  65
  24	  67
  24	  69
  24	  75
  24	  77
  24	  79
  24	  80
  24	  84
  24	  88
  24	  89
  24	  92
  24	  94
  24	  98
  24	 101
  24	 102
  24	 105
  24	 106
  24	 107
  24	 108
  24	 114
  24	 115
  24	 116
  24	 118
  24	 119
  25	  26
  25	  27
  25	  28
  25	  29
  25	  32
  25	  35
  25	  37
  25	  42
  25	  44
  25	  47
  25	  48
  25	  49
  25	  50
  25	  53
  25	  56
  25	  57
  25	  58
  25	  61
  25	  65
  25	  66
  25	  67
  25	  73
  25	  75
  25	  79
  25	  81
  25	  82
  25	  83
  25	  92
  25	  94
  25	  98
  25	 100
  25	 101
  25	 102
  25	 103
  25	 105
  25	 108
  25	 111
  25	 112
  25	 117
  25	 118
  25	 119
  26	  30
  26	  32
  26	  33
  26	  34
  26	  37
  26	  42
  26	  43
  26	  44
  26	  45
  26	  46
  26	  47
  26	  48
  26	  50
  26	  51
  26	  53
  26	  61
  26	  63
  26	  66
  26	  71
  26	  73
  26	  78
  26	  79
  26	  80
  26	  82
  26	  84
  26	  85
  26	  86
  26	  90
  26	  91
  26	  94
  26	  95
  26	  97
  26	  98
  26	  99
  26	 101
  26	 102
  26	 105
  26	 106
  26	 108
  26	 111
  26	 114
  26	 116
  26	 118
  26	 119
  27	  31
  27	  37
  27	  41
  27	  46
  27	  47
  27	  51
  27	  52
  27	  53
  27	  54
  27	  55
  27	  56
  27	  58
  27	  59
  27	  61
  27	  62
  27	  63
  27	  64
  27	  65
  27	  70
  27	  72
  27	  73
  27	  78
  27	  80
  27	  81
  27	  83
  27	  86
  27	  87
  27	  88
  27	  93
  27	  95
  27	  99
  27	 101
  27	 103
  27	 104
  27	 110
  27	 111
  27	 112
  27	 114
  27	 115
  28	  29
  28	  32
  28	  34
  28	  35
  28	  36
  28	  37
  28	  40
  28	  41
  28	  43
  28	  47
  28	  53
  28	  54
  28	  56
  28	  59
  28	  62
  28	  64
  28	  69
  28	  70
  28	  72
  28	  74
  28	  75
  28	  78
  28	  79
  28	  84
  28	  86
  28	  87
  28	  94
  28	  95
  28	 102
  28	 103
  28	 104
  28	 105
  28	 106
  28	 107
  28	 113
  28	 114
  28	 115
  28	 117
  29	  30
  29	  31
  29	  33
  29	  34
  29	  37
  29	  38
  29	  39
  29	  40
  29	  41
  29	  42
  29	  45
  29	  46
  29	  47
  29	  48
  29	  49
  29	  50
  29	  51
  29	  53
  29	  56
  29	  60
  29	  62
  29	  63
  29	  65
  29	  66
  29	  70
  29	  72
  29	  76
  29	  80
  29	  82
  29	  84
  29	  86
  29	  89
  29	  91
  29	  92
  29	  93
  29	  96
  29	  97
  29	  98
  29	 100
  29	 101
  29	 103
  29	 106
  29	 107
  29	 110
  29	 115
  29	 117
  30	  32
  30	  34
  30	  38
  30	  46
  30	  49
  30	  51
  30	  52
  30	  55
  30	  57
  30	  58
  30	  59
  30	  61
  30	  64
  30	  69
  30	  73
  30	  74
  30	  75
  30	  76
  30	  78
  30	  79
  30	  80
  30	  84
  30	  85
  30	  88
  30	  89
  30	  90
  30	  91
  30	  93
  30	  98
  30	 103
  30	 108
  30	 112
  30	 119
  31	  34
  31	  38
  31	  42
  31	  48
  31	  49
  31	  50
  31	  51
  31	  53
  31	  54
  31	  56
  31	  59
  31	  62
  31	  64
  31	  65
  31	  66
  31	  68
  31	  71
  31	  74
  31	  75
  31	  77
  31	  78
  31	  80
  31	  84
  31	  85
  31	  87
  31	  92
  31	  93
  31	  99
  31	 100
  31	 110
  31	 112
  31	 113
  31	 115
  32	  34
  32	  35
  32	  36
  32	  43
  32	  46
  32	  53
  32	  55
  32	  56
  32	  60
  32	  61
  32	  63
  32	  66
  32	  69
  32	  71
  32	  72
  32	  73
  32	  77
  32	  81
  32	  82
  32	  86
  32	  87
  32	  90
  32	  91
  32	  92
  32	  93
  32	  96
  32	 101
  32	 103
  32	 104
  32	 106
  32	 109
  32	 111
  32	 112
  32	 113
  32	 114
  33	  36
  33	  37
  33	  38
  33	  40
  33	  42
  33	  43
  33	  46
  33	  48
  33	  51
  33	  52
  33	  58
  33	  69
  33	  70
  33	  75
  33	  76
  33	  78
  33	  80
  33	  86
  33	  90
  33	  91
  33	  93
  33	  94
  33	 105
  33	 107
  33	 108
  33	 112
  33	 113
  33	 114
  33	 115
  33	 116
  33	 117
  33	 119
  34	  35
  34	  39
  34	  43
  34	  44
  34	  45
  34	  47
  34	  48
  34	  51
  34	  53
  34	  54
  34	  57
  34	  59
  34	  61
  34	  62
  34	  64
  34	  66
  34	  67
  34	  72
  34	  73
  34	  74
  34	  77
  34	  78
  34	  85
  34	  87
  34	  93
  34	  95
  34	  96
  34	 102
  34	 104
  34	 106
  34	 107
  34	 111
  34	 113
  34	 114
  34	 115
  35	  37
  35	  41
  35	  42
  35	  43
  35	  44
  35	  46
  35	  50
  35	  51
  35	  53
  35	  55
  35	  56
  35	  57
  35	  59
  35	  63
  35	  64
  35	  67
  35	  70
  35	  71
  35	  73
  35	  75
  35	  77
  35	  80
  35	  81
  35	  82
  35	  85
  35	  86
  35	  92
  35	  96
  35	 101
  35	 102
  35	 108
  35	 110
  35	 118
  36	  37
  36	  38
  36	  40
  36	  41
  36	  46
  36	  48
  36	  49
  36	  51
  36	  55
  36	  56
  36	  57
  36	  59
  36	  63
  36	  64
  36	  66
  36	  67
  36	  71
  36	  73
  36	  74
  36	  75
  36	  77
  36	  78
  36	  79
  36	  82
  36	  87
  36	  89
  36	  90
  36	  93
  36	  98
  36	 100
  36	 111
  36	 115
  36	 118
  37	  40
  37	  44
  37	  45
  37	  46
  37	  47
  37	  49
  37	  51
  37	  54
  37	  56
  37	  57
  37	  59
  37	  60
  37	  63
  37	  66
  37	  77
  37	  78
  37	  82
  37	  85
  37	  93
  37	  95
  37	  96
  37	  99
  37	 100
  37	 101
  37	 105
  37	 106
  37	 108
  37	 111
  37	 112
  37	 115
  37	 118
  37	 119
  38	  40
  38	  41
  38	  42
  38	  43
  38	  44
  38	  45
  38	  46
  38	  52
  38	  54
  38	  56
  38	  57
  38	  62
  38	  64
  38	  65
  38	  66
  38	  67
  38	  70
  38	  73
  38	  82
  38	  83
  38	  85
  38	  88
  38	  89
  38	  96
  38	  97
  38	  98
  38	  99
  38	 107
  38	 108
  38	 109
  38	 110
  38	 112
  38	 115
  38	 116
  38	 117
  38	 118
  39	  40
  39	  42
  39	  44
  39	  45
  39	  46
  39	  47
  39	  48
  39	  49
  39	  50
  39	  52
  39	  54
  39	  55
  39	  57
  39	  58
  39	  61
  39	  62
  39	  63
  39	  64
  39	  66
  39	  70
  39	  71
  39	  74
  39	  80
  39	  83
  39	  86
  39	  87
  39	  89
  39	  91
  39	  93
  39	  95
  39	  96
  39	  97
  39	 101
  39	 103
  39	 104
  39	 105
  39	 106
  39	 109
  39	 110
  39	 111
  39	 112
  39	 114
  39	 115
  39	 116
  40	  41
  40	  46
  40	  49
  40	  51
  40	  52
  40	  53
  40	  57
  40	  58
  40	  61
  40	  63
  40	  67
  40	  68
  40	  71
  40	  72
  40	  73
  40	  76
  40	  85
  40	  88
  40	  90
  40	  91
  40	  96
  40	  98
  40	 100
  40	 102
  40	 104
  40	 106
  40	 112
  40	 115
  40	 117
  41	  46
  41	  48
  41	  51
  41	  53
  41	  54
  41	  56
  41	  57
  41	  58
  41	  59
  41	  63
  41	  66
  41	  67
  41	  68
  41	  69
  41	  70
  41	  71
  41	  77
  41	  78
  41	  80
  41	  84
  41	  88
  41	  90
  41	  92
  41	 104
  41	 105
  41	 106
  41	 107
  41	 109
  41	 111
  41	 117
  41	 119
  42	  43
  42	  44
  42	  45
  42	  47
  42	  52
  42	  53
  42	  56
  42	  59
  42	  60
  42	  62
  42	  63
  42	  65
  42	  67
  42	  70
  42	  71
  42	  75
  42	  76
  42	  78
  42	  80
  42	  81
  42	  90
  42	  91
  42	  92
  42	  93
  42	  95
  42	  97
  42	 100
  42	 102
  42	 107
  42	 108
  42	 109
  42	 110
  42	 112
  42	 114
  42	 117
  42	 118
  42	 119
  43	  49
  43	  50
  43	  52
  43	  56
  43	  67
  43	  68
  43	  70
  43	  72
  43	  73
  43	  75
  43	  78
  43	  80
  43	  85
  43	  87
  43	  90
  43	  92
  43	  96
  43	 103
  43	 105
  43	 107
  43	 112
  43	 114
  44	  51
  44	  52
  44	  53
  44	  56
  44	  58
  44	  59
  44	  61
  44	  66
  44	  67
  44	  77
  44	  78
  44	  79
  44	  81
  44	  83
  44	  85
  44	  86
  44	  87
  44	  88
  44	  95
  44	  97
  44	  98
  44	 100
  44	 103
  44	 104
  44	 107
  44	 113
  44	 116
  44	 117
  44	 119
  45	  50
  45	  52
  45	  54
  45	  59
  45	  60
  45	  65
  45	  69
  45	  71
  45	  74
  45	  78
  45	  80
  45	  83
  45	  85
  45	  86
  45	  89
  45	  91
  45	  92
  45	  96
  45	  98
  45	 100
  45	 101
  45	 106
  45	 107
  45	 109
  45	 111
  45	 114
  45	 116
  45	 117
  45	 118
  46	  50
  46	  54
  46	  56
  46	  62
  46	  63
  46	  64
  46	  65
  46	  70
  46	  76
  46	  78
  46	  80
  46	  83
  46	  84
  46	  86
  46	  89
  46	  94
  46	  97
  46	 100
  46	 102
  46	 104
  46	 105
  46	 106
  46	 109
  46	 111
  46	 113
  46	 117
  46	 118
  46	 119
  47	  49
  47	  53
  47	  56
  47	  59
  47	  60
  47	  65
  47	  68
  47	  72
  47	  73
  47	  78
  47	  79
  47	  82
  47	  85
  47	  88
  47	  90
  47	  91
  47	  92
  47	  95
  47	 101
  47	 105
  47	 107
  47	 108
  47	 110
  47	 111
  47	 112
  47	 114
  47	 116
  47	 117
  47	 119
  48	  50
  48	  53
  48	  54
  48	  55
  48	  56
  48	  58
  48	  64
  48	  65
  48	  66
  48	  69
  48	  70
  48	  73
  48	  74
  48	  77
  48	  78
  48	  80
  48	  87
  48	  89
  48	  91
  48	  94
  48	  95
  48	  97
  48	  98
  48	  99
  48	 100
  48	 102
  48	 104
  48	 105
  48	 109
  48	 111
  48	 116
  48	 117
  49	  50
  49	  60
  49	  62
  49	  64
  49	  68
  49	  69
  49	  72
  49	  73
  49	  74
  49	  76
  49	  77
  49	  84
  49	  85
  49	  86
  49	  87
  49	  89
  49	  91
  49	  92
  49	  93
  49	 100
  49	 105
  49	 109
  49	 110
  49	 112
  49	 113
  49	 115
  49	 117
  49	 118
  50	  51
  50	  53
  50	  55
  50	  61
  50	  63
  50	  68
  50	  69
  50	  71
  50	  72
  50	  76
  50	  78
  50	  79
  50	  81
  50	  82
  50	  84
  50	  85
  50	  94
  50	  95
  50	 100
  50	 104
  50	 111
  50	 115
  50	 117
  50	 119
  51	  52
  51	  57
  51	  61
  51	  62
  51	  64
  51	  65
  51	  66
  51	  69
  51	  73
  51	  78
  51	  79
  51	  80
  51	  89
  51	  90
  51	  93
  51	  94
  51	  96
  51	  99
  51	 101
  51	 105
  51	 107
  51	 111
  52	  57
  52	  59
  52	  66
  52	  68
  52	  70
  52	  73
  52	  75
  52	  81
  52	  82
  52	  84
  52	  87
  52	  93
  52	  94
  52	  99
  52	 103
  52	 104
  52	 106
  52	 108
  52	 110
  52	 111
  52	 115
  52	 117
  53	  56
  53	  57
  53	  60
  53	  61
  53	  62
  53	  63
  53	  65
  53	  66
  53	  71
  53	  72
  53	  74
  53	  80
  53	  81
  53	  83
  53	  86
  53	  87
  53	  89
  53	  90
  53	  92
  53	  94
  53	  97
  53	 102
  53	 105
  53	 107
  53	 110
  53	 112
  53	 117
  53	 118
  54	  55
  54	  58
  54	  60
  54	  63
  54	  68
  54	  69
  54	  73
  54	  79
  54	  80
  54	  83
  54	  85
  54	  86
  54	  87
  54	  90
  54	  92
  54	  94
  54	  98
  54	  99
  54	 100
  54	 109
  54	 110
  54	 114
  54	 118
  54	 119
  55	  57
  55	  58
  55	  60
  55	  62
  55	  63
  55	  64
  55	  70
  55	  72
  55	  77
  55	  78
  55	  80
  55	  82
  55	  83
  55	  90
  55	  94
  55	  97
  55	  98
  55	 102
  55	 103
  55	 104
  55	 105
  55	 109
  55	 110
  55	 112
  55	 113
  55	 115
  55	 117
  56	  58
  56	  60
  56	  62
  56	  65
  56	  67
  56	  70
  56	  77
  56	  80
  56	  83
  56	  89
  56	  90
  56	  93
  56	  94
  56	  95
  56	  96
  56	  98
  56	  99
  56	 100
  56	 101
  56	 102
  56	 103
  56	 104
  56	 105
  56	 113
  56	 114
  56	 116
  56	 118
  56	 119
  57	  61
  57	  65
  57	  67
  57	  69
  57	  73
  57	  77
  57	  79
  57	  80
  57	  81
  57	  83
  57	  87
  57	  88
  57	  89
  57	  94
  57	  97
  57	  98
  57	 100
  57	 101
  57	 102
  57	 104
  57	 107
  57	 110
  57	 111
  57	 114
  57	 119
  58	  59
  58	  61
  58	  65
  58	  66
  58	  67
  58	  68
  58	  72
  58	  73
  58	  78
  58	  79
  58	  80
  58	  81
  58	  85
  58	  88
  58	  93
  58	  95
  58	  96
  58	  97
  58	  98
  58	 100
  58	 104
  58	 105
  58	 106
  58	 107
  58	 109
  58	 111
  58	 114
  58	 115
  58	 116
  58	 117
  58	 118
  59	  60
  59	  65
  59	  67
  59	  68
  59	  69
  59	  71
  59	  75
  59	  84
  59	  86
  59	  87
  59	  88
  59	  94
  59	  96
  59	  98
  59	  99
  59	 100
  59	 106
  59	 107
  59	 109
  59	 111
  59	 112
  59	 113
  59	 116
  59	 117
  59	 119
  60	  62
  60	  66
  60	  73
  60	  76
  60	  78
  60	  79
  60	  80
  60	  82
  60	  83
  60	  90
  60	  91
  60	  94
  60	  95
  60	  97
  60	  99
  60	 101
  60	 103
  60	 104
  60	 107
  60	 110
  60	 111
  60	 114
  60	 116
  60	 117
  61	  64
  61	  65
  61	  66
  61	  77
  61	  79
  61	  80
  61	  81
  61	  84
  61	  89
  61	  93
  61	  94
  61	  96
  61	 101
  61	 102
  61	 104
  61	 106
  61	 107
  61	 108
  61	 111
  61	 114
  61	 116
  61	 117
  62	  68
  62	  70
  62	  71
  62	  74
  62	  78
  62	  81
  62	  82
  62	  84
  62	  85
  62	  88
  62	  93
  62	  94
  62	  95
  62	  98
  62	  99
  62	 102
  62	 105
  62	 106
  62	 117
  63	  64
  63	  68
  63	  80
  63	  81
  63	  82
  63	  84
  63	  87
  63	  91
  63	  93
  63	  96
  63	  98
  63	 103
  63	 106
  63	 108
  63	 110
  63	 112
  63	 113
  63	 115
  64	  71
  64	  72
  64	  73
  64	  76
  64	  77
  64	  84
  64	  87
  64	  90
  64	  92
  64	  94
  64	  95
  64	  96
  64	 109
  64	 111
  64	 114
  64	 115
  64	 116
  64	 118
  64	 119
  65	  69
  65	  70
  65	  72
  65	  73
  65	  74
  65	  77
  65	  79
  65	  80
  65	  81
  65	  86
  65	  88
  65	  90
  65	  92
  65	  93
  65	  94
  65	  95
  65	 104
  65	 106
  65	 108
  65	 110
  65	 112
  65	 119
  66	  69
  66	  71
  66	  73
  66	  76
  66	  78
  66	  79
  66	  81
  66	  87
  66	  88
  66	  96
  66	  98
  66	  99
  66	 103
  66	 105
  66	 106
  66	 109
  66	 113
  66	 117
  66	 118
  67	  68
  67	  75
  67	  79
  67	  80
  67	  86
  67	  88
  67	  90
  67	  92
  67	  94
  67	  97
  67	  99
  67	 100
  67	 102
  67	 108
  67	 113
  67	 117
  68	  72
  68	  73
  68	  77
  68	  78
  68	  83
  68	  84
  68	  85
  68	  86
  68	  90
  68	  91
  68	  94
  68	  95
  68	 103
  68	 104
  68	 106
  68	 112
  68	 118
  69	  71
  69	  75
  69	  76
  69	  79
  69	  82
  69	  83
  69	  84
  69	  85
  69	  86
  69	  89
  69	  93
  69	 100
  69	 103
  69	 107
  69	 109
  69	 114
  69	 116
  70	  71
  70	  72
  70	  73
  70	  78
  70	  79
  70	  80
  70	  81
  70	  85
  70	  90
  70	  92
  70	  98
  70	 101
  70	 102
  70	 105
  70	 114
  70	 115
  70	 119
  71	  72
  71	  74
  71	  76
  71	  77
  71	  78
  71	  81
  71	  83
  71	  84
  71	  85
  71	  87
  71	  93
  71	  94
  71	  96
  71	  97
  71	  99
  71	 101
  71	 105
  71	 108
  71	 109
  71	 110
  71	 113
  71	 117
  71	 118
  72	  76
  72	  81
  72	  83
  72	  88
  72	  90
  72	  91
  72	  93
  72	  97
  72	  98
  72	 101
  72	 102
  72	 103
  72	 104
  72	 105
  72	 106
  72	 107
  72	 113
  72	 115
  72	 117
  72	 119
  73	  74
  73	  76
  73	  78
  73	  81
  73	  82
  73	  83
  73	  84
  73	  86
  73	  89
  73	  92
  73	  94
  73	  95
  73	  96
  73	 101
  73	 105
  73	 106
  73	 107
  73	 108
  73	 110
  73	 117
  74	  78
  74	  79
  74	  83
  74	  85
  74	  87
  74	  89
  74	  91
  74	  94
  74	  99
  74	 100
  74	 109
  74	 110
  74	 119
  75	  76
  75	  78
  75	  79
  75	  80
  75	  83
  75	  84
  75	  85
  75	  87
  75	  88
  75	  89
  75	  90
  75	  91
  75	  93
  75	  94
  75	  96
  75	  98
  75	 102
  75	 103
  75	 104
  75	 105
  75	 107
  75	 109
  75	 110
  75	 116
  75	 117
  75	 119
  76	  77
  76	  79
  76	  86
  76	  87
  76	  88
  76	  89
  76	  93
  76	  94
  76	  95
  76	 103
  76	 104
  76	 108
  76	 111
  76	 113
  76	 116
  76	 117
  76	 118
  76	 119
  77	  82
  77	  85
  77	  88
  77	 107
  77	 109
  77	 110
  77	 112
  77	 117
  77	 118
  78	  84
  78	  85
  78	  87
  78	  90
  78	  91
  78	  92
  78	  93
  78	  97
  78	  98
  78	  99
  78	 101
  78	 104
  78	 108
  78	 110
  78	 111
  78	 112
  78	 114
  78	 119
  79	  83
  79	  86
  79	  88
  79	  90
  79	  93
  79	  98
  79	 100
  79	 101
  79	 102
  79	 105
  79	 107
  79	 108
  79	 110
  79	 111
  79	 112
  79	 113
  79	 117
  79	 119
  80	  86
  80	  93
  80	  97
  80	  98
  80	  99
  80	 100
  80	 103
  80	 108
  80	 109
  80	 114
  80	 116
  80	 118
  81	  82
  81	  83
  81	  92
  81	 100
  81	 101
  81	 102
  81	 107
  81	 108
  81	 109
  81	 114
  81	 115
  81	 117
  81	 119
  82	  83
  82	  84
  82	  85
  82	  86
  82	  87
  82	  88
  82	  89
  82	  90
  82	  91
  82	  92
  82	  94
  82	  95
  82	  97
  82	  98
  82	 101
  82	 104
  82	 109
  82	 110
  82	 115
  82	 118
  82	 119
  83	  86
  83	  87
  83	  88
  83	  89
  83	  91
  83	  95
  83	  97
  83	  99
  83	 100
  83	 101
  83	 103
  83	 105
  83	 107
  83	 108
  83	 110
  83	 114
  83	 118
  83	 119
  84	  85
  84	  86
  84	  90
  84	  91
  84	  92
  84	  94
  84	  98
  84	  99
  84	 102
  84	 106
  84	 107
  84	 109
  84	 113
  84	 115
  84	 116
  84	 118
  84	 119
  85	  87
  85	  89
  85	  94
  85	  97
  85	 104
  85	 105
  85	 107
  85	 114
  85	 117
  86	  88
  86	  89
  86	  92
  86	  97
  86	 101
  86	 102
  86	 105
  86	 106
  86	 109
  86	 110
  86	 111
  86	 112
  86	 114
  86	 116
  86	 117
  87	  91
  87	  92
  87	  96
  87	  97
  87	  99
  87	 101
  87	 109
  87	 112
  87	 114
  87	 115
  87	 118
  88	  90
  88	  95
  88	 101
  88	 102
  88	 107
  88	 109
  88	 110
  88	 113
  88	 115
  88	 116
  88	 117
  89	  92
  89	  93
  89	  95
  89	  96
  89	 100
  89	 101
  89	 102
  89	 104
  89	 105
  89	 107
  89	 108
  89	 114
  89	 115
  89	 116
  89	 117
  89	 118
  90	  93
  90	  96
  90	  99
  90	 101
  90	 102
  90	 111
  90	 112
  90	 113
  91	  95
  91	  96
  91	  97
  91	  98
  91	 100
  91	 103
  91	 104
  91	 108
  91	 113
  91	 116
  91	 117
  91	 118
  92	  94
  92	  96
  92	  97
  92	  98
  92	  99
  92	 100
  92	 102
  92	 104
  92	 108
  92	 111
  92	 113
  92	 114
  92	 115
  92	 116
  92	 119
  93	  97
  93	  98
  93	 101
  93	 102
  93	 103
  93	 106
  93	 110
  93	 114
  93	 116
  93	 117
  93	 118
  94	 104
  94	 105
  94	 106
  94	 107
  94	 109
  94	 110
  94	 111
  94	 112
  94	 114
  94	 118
  95	  97
  95	  98
  95	 106
  95	 110
  95	 114
  95	 116
  95	 117
  95	 119
  96	  99
  96	 101
  96	 103
  96	 104
  96	 105
  96	 106
  96	 107
  96	 112
  96	 113
  96	 114
  96	 116
  96	 117
  96	 118
  97	  98
  97	  99
  97	 101
  97	 104
  97	 106
  97	 108
  97	 110
  97	 112
  97	 113
  97	 114
  97	 116
  97	 117
  97	 118
  98	  99
  98	 101
  98	 103
  98	 104
  98	 105
  98	 106
  98	 108
  98	 110
  98	 111
  98	 112
  98	 114
  98	 115
  99	 101
  99	 103
  99	 105
  99	 107
  99	 110
  99	 112
  99	 113
  99	 114
  99	 119
 100	 102
 100	 104
 100	 105
 100	 106
 100	 111
 100	 113
 100	 115
 100	 117
 100	 118
 101	 103
 101	 108
 101	 109
 101	 110
 101	 112
 101	 115
 101	 116
 101	 118
 101	 119
 102	 103
 102	 107
 102	 108
 102	 114
 102	 116
 102	 117
 103	 105
 103	 106
 103	 107
 103	 109
 103	 119
 104	 107
 104	 108
 104	 109
 104	 110
 104	 111
 104	 112
 104	 115
 104	 116
 104	 117
 104	 118
 105	 108
 105	 109
 105	 113
 105	 116
 106	 107
 106	 108
 106	 109
 106	 110
 106	 112
 106	 113
 106	 114
 106	 118
 106	 119
 107	 108
 107	 109
 107	 112
 107	 113
 107	 114
 107	 115
 107	 118
 107	 119
 108	 109
 108	 110
 108	 111
 108	 112
 108	 116
 108	 117
 108	 118
 108	 119
 109	 113
 109	 114
 109	 117
 110	 114
 110	 117
 110	 118
 111	 112
 111	 113
 111	 116
 111	 117
 111	 118
 112	 116
 112	 119
 115	 116
 115	 119
 116	 118
;
